n_res = 4;
rc = [ 19, 18, 19, 17 ];
n_tasks = 30;
d = [ 3, 2, 1, 7, 2, 1, 9, 8, 8, 8, 4, 10, 4, 10, 7, 1, 4, 9, 1, 4, 3, 5, 4, 3, 1, 7, 6, 9, 7, 3 ];
rr = [| 10, 10, 5, 3, 4, 1, 10, 8, 4, 2, 8, 9, 8, 4, 7, 3, 6, 3, 6, 1, 4, 10, 5, 6, 9, 4, 3, 7, 8, 1
      | 10, 2, 9, 2, 6, 7, 8, 4, 2, 9, 2, 1, 4, 6, 8, 3, 4, 10, 3, 6, 3, 9, 6, 10, 3, 1, 9, 6, 9, 2
      | 5, 3, 2, 10, 10, 2, 8, 4, 3, 2, 6, 2, 10, 4, 8, 10, 5, 2, 5, 3, 10, 5, 9, 9, 10, 3, 1, 6, 6, 7
      | 5, 8, 8, 10, 8, 1, 2, 3, 2, 5, 2, 6, 9, 1, 2, 3, 2, 2, 5, 4, 8, 6, 10, 4, 2, 7, 9, 10, 5, 7 |];
suc = [ { 2 }, 
        { 1 }, 
        { 4 }, 
        { 3 }, 
        { 6 }, 
        { 5 }, 
        { 8 }, 
        { 7 }, 
        { 10 }, 
        { 9 }, 
        { 12 }, 
        { 11 }, 
        { 14 }, 
        { 13 }, 
        { 16 }, 
        { 15 }, 
        { 18 }, 
        { 17 }, 
        { 20 }, 
        { 19 }, 
        { 22 }, 
        { 21 }, 
        { 24 }, 
        { 23 }, 
        { 26 }, 
        { 25 }, 
        { 28 }, 
        { 27 }, 
        { 30 }, 
        { 29 }]; 
